c Generated map
c Size: 13 * 13, weights in range: 1 to 10, walls: True, with ratio 0.1
c dim 2 of 3
c
p sp 169 250
c graph contains 169 nodes and 250 arcs
c
a 1 14 4
a 14 1 4
a 1 2 8
a 2 1 8
a 2 15 4
a 15 2 4
a 4 17 5
a 17 4 5
a 4 5 8
a 5 4 8
a 5 18 9
a 18 5 9
a 5 6 2
a 6 5 2
a 6 19 8
a 19 6 8
a 6 7 10
a 7 6 10
a 7 20 6
a 20 7 6
a 7 8 9
a 8 7 9
a 8 9 2
a 9 8 2
a 9 22 4
a 22 9 4
a 9 10 3
a 10 9 3
a 10 23 3
a 23 10 3
a 10 11 8
a 11 10 8
a 11 24 8
a 24 11 8
a 11 12 8
a 12 11 8
a 12 25 4
a 25 12 4
a 14 27 2
a 27 14 2
a 14 15 4
a 15 14 4
a 15 28 8
a 28 15 8
a 15 16 5
a 16 15 5
a 16 17 4
a 17 16 4
a 17 30 5
a 30 17 5
a 17 18 9
a 18 17 9
a 18 31 3
a 31 18 3
a 18 19 8
a 19 18 8
a 19 32 7
a 32 19 7
a 19 20 7
a 20 19 7
a 22 35 3
a 35 22 3
a 22 23 4
a 23 22 4
a 23 36 1
a 36 23 1
a 23 24 3
a 24 23 3
a 24 37 2
a 37 24 2
a 24 25 4
a 25 24 4
a 25 38 5
a 38 25 5
a 25 26 7
a 26 25 7
a 26 39 10
a 39 26 10
a 27 40 4
a 40 27 4
a 27 28 9
a 28 27 9
a 28 41 8
a 41 28 8
a 30 43 6
a 43 30 6
a 30 31 10
a 31 30 10
a 31 44 9
a 44 31 9
a 31 32 7
a 32 31 7
a 32 45 2
a 45 32 2
a 34 47 10
a 47 34 10
a 34 35 1
a 35 34 1
a 35 48 8
a 48 35 8
a 35 36 5
a 36 35 5
a 36 49 6
a 49 36 6
a 36 37 5
a 37 36 5
a 37 50 1
a 50 37 1
a 37 38 3
a 38 37 3
a 38 39 5
a 39 38 5
a 39 52 1
a 52 39 1
a 40 53 1
a 53 40 1
a 40 41 1
a 41 40 1
a 41 54 2
a 54 41 2
a 41 42 5
a 42 41 5
a 42 55 8
a 55 42 8
a 42 43 6
a 43 42 6
a 43 56 2
a 56 43 2
a 43 44 8
a 44 43 8
a 44 57 7
a 57 44 7
a 44 45 10
a 45 44 10
a 45 58 6
a 58 45 6
a 45 46 6
a 46 45 6
a 46 59 10
a 59 46 10
a 46 47 7
a 47 46 7
a 47 48 7
a 48 47 7
a 48 61 6
a 61 48 6
a 48 49 1
a 49 48 1
a 49 62 3
a 62 49 3
a 49 50 4
a 50 49 4
a 50 63 10
a 63 50 10
a 52 65 5
a 65 52 5
a 53 54 6
a 54 53 6
a 54 67 10
a 67 54 10
a 54 55 7
a 55 54 7
a 55 68 8
a 68 55 8
a 55 56 5
a 56 55 5
a 56 69 2
a 69 56 2
a 56 57 9
a 57 56 9
a 57 70 4
a 70 57 4
a 57 58 10
a 58 57 10
a 58 71 9
a 71 58 9
a 58 59 2
a 59 58 2
a 59 72 6
a 72 59 6
a 61 62 6
a 62 61 6
a 62 75 8
a 75 62 8
a 62 63 1
a 63 62 1
a 63 76 4
a 76 63 4
a 63 64 6
a 64 63 6
a 64 77 4
a 77 64 4
a 64 65 6
a 65 64 6
a 65 78 4
a 78 65 4
a 67 80 2
a 80 67 2
a 67 68 8
a 68 67 8
a 68 81 1
a 81 68 1
a 68 69 4
a 69 68 4
a 69 82 5
a 82 69 5
a 69 70 2
a 70 69 2
a 70 83 4
a 83 70 4
a 70 71 1
a 71 70 1
a 71 84 1
a 84 71 1
a 71 72 10
a 72 71 10
a 72 85 10
a 85 72 10
a 72 73 7
a 73 72 7
a 73 86 10
a 86 73 10
a 75 88 2
a 88 75 2
a 75 76 4
a 76 75 4
a 76 89 4
a 89 76 4
a 76 77 4
a 77 76 4
a 77 90 8
a 90 77 8
a 77 78 1
a 78 77 1
a 78 91 6
a 91 78 6
a 79 92 4
a 92 79 4
a 79 80 8
a 80 79 8
a 80 93 7
a 93 80 7
a 80 81 7
a 81 80 7
a 81 94 8
a 94 81 8
a 81 82 7
a 82 81 7
a 82 95 5
a 95 82 5
a 82 83 5
a 83 82 5
a 83 96 1
a 96 83 1
a 83 84 10
a 84 83 10
a 84 97 4
a 97 84 4
a 84 85 5
a 85 84 5
a 85 98 3
a 98 85 3
a 85 86 3
a 86 85 3
a 86 99 6
a 99 86 6
a 86 87 5
a 87 86 5
a 87 100 10
a 100 87 10
a 87 88 4
a 88 87 4
a 88 101 4
a 101 88 4
a 88 89 6
a 89 88 6
a 89 102 4
a 102 89 4
a 89 90 8
a 90 89 8
a 90 103 4
a 103 90 4
a 90 91 5
a 91 90 5
a 91 104 6
a 104 91 6
a 92 105 3
a 105 92 3
a 92 93 8
a 93 92 8
a 93 106 1
a 106 93 1
a 93 94 7
a 94 93 7
a 94 107 10
a 107 94 10
a 94 95 7
a 95 94 7
a 95 108 8
a 108 95 8
a 95 96 8
a 96 95 8
a 96 109 6
a 109 96 6
a 96 97 7
a 97 96 7
a 97 98 1
a 98 97 1
a 98 111 5
a 111 98 5
a 98 99 6
a 99 98 6
a 99 112 5
a 112 99 5
a 99 100 3
a 100 99 3
a 100 113 8
a 113 100 8
a 100 101 9
a 101 100 9
a 101 114 4
a 114 101 4
a 101 102 8
a 102 101 8
a 102 115 8
a 115 102 8
a 102 103 6
a 103 102 6
a 103 116 7
a 116 103 7
a 103 104 1
a 104 103 1
a 105 118 9
a 118 105 9
a 105 106 6
a 106 105 6
a 106 119 10
a 119 106 10
a 106 107 3
a 107 106 3
a 107 120 5
a 120 107 5
a 107 108 5
a 108 107 5
a 108 109 4
a 109 108 4
a 109 122 1
a 122 109 1
a 111 124 1
a 124 111 1
a 111 112 9
a 112 111 9
a 112 125 4
a 125 112 4
a 112 113 5
a 113 112 5
a 113 126 6
a 126 113 6
a 113 114 2
a 114 113 2
a 114 127 5
a 127 114 5
a 114 115 2
a 115 114 2
a 115 128 7
a 128 115 7
a 115 116 4
a 116 115 4
a 118 131 10
a 131 118 10
a 118 119 4
a 119 118 4
a 119 132 9
a 132 119 9
a 119 120 6
a 120 119 6
a 120 133 7
a 133 120 7
a 122 123 1
a 123 122 1
a 123 136 3
a 136 123 3
a 123 124 4
a 124 123 4
a 124 125 10
a 125 124 10
a 125 138 4
a 138 125 4
a 125 126 4
a 126 125 4
a 126 127 9
a 127 126 9
a 127 140 9
a 140 127 9
a 127 128 7
a 128 127 7
a 128 141 10
a 141 128 10
a 131 144 3
a 144 131 3
a 131 132 9
a 132 131 9
a 132 145 10
a 145 132 10
a 132 133 8
a 133 132 8
a 133 146 7
a 146 133 7
a 133 134 5
a 134 133 5
a 134 147 8
a 147 134 8
a 136 149 8
a 149 136 8
a 138 151 1
a 151 138 1
a 140 153 3
a 153 140 3
a 140 141 5
a 141 140 5
a 141 154 10
a 154 141 10
a 141 142 4
a 142 141 4
a 142 155 4
a 155 142 4
a 144 157 10
a 157 144 10
a 144 145 10
a 145 144 10
a 145 158 8
a 158 145 8
a 145 146 6
a 146 145 6
a 146 159 4
a 159 146 4
a 146 147 3
a 147 146 3
a 147 160 7
a 160 147 7
a 147 148 10
a 148 147 10
a 148 161 6
a 161 148 6
a 148 149 2
a 149 148 2
a 149 162 10
a 162 149 10
a 149 150 8
a 150 149 8
a 150 163 10
a 163 150 10
a 150 151 10
a 151 150 10
a 151 164 1
a 164 151 1
a 151 152 9
a 152 151 9
a 152 165 8
a 165 152 8
a 152 153 10
a 153 152 10
a 153 166 9
a 166 153 9
a 153 154 6
a 154 153 6
a 154 167 1
a 167 154 1
a 154 155 3
a 155 154 3
a 155 168 3
a 168 155 3
a 155 156 7
a 156 155 7
a 156 169 4
a 169 156 4
a 157 158 1
a 158 157 1
a 158 159 4
a 159 158 4
a 159 160 1
a 160 159 1
a 160 161 3
a 161 160 3
a 161 162 1
a 162 161 1
a 162 163 10
a 163 162 10
a 163 164 5
a 164 163 5
a 164 165 5
a 165 164 5
a 165 166 8
a 166 165 8
a 166 167 7
a 167 166 7
a 167 168 4
a 168 167 4
a 168 169 5
a 169 168 5
